datasets/2-dimensional/CL_09_25_03.vbp
2
968 988 
25
315 355 30
117 321 72
137 188 4
143 224 88
301 195 54
278 269 64
139 110 90
353 388 26
285 367 94
303 314 28
272 297 72
160 182 49
334 236 54
359 225 19
203 315 28
232 175 61
313 169 84
113 166 23
298 131 67
135 132 53
191 334 54
232 105 16
125 111 9
136 220 54
333 396 77
