datasets/2-dimensional-benchmark/CL_09_25_03.txt
968 988 
0 30 315 355 
1 72 117 321 
2 4 137 188 
3 88 143 224 
4 54 301 195 
5 64 278 269 
6 90 139 110 
7 26 353 388 
8 94 285 367 
9 28 303 314 
10 72 272 297 
11 49 160 182 
12 54 334 236 
13 19 359 225 
14 28 203 315 
15 61 232 175 
16 84 313 169 
17 23 113 166 
18 67 298 131 
19 53 135 132 
20 54 191 334 
21 16 232 105 
22 9 125 111 
23 54 136 220 
24 77 333 396 
